NAME : ClusterId_1049 
COMMENT : (Gillet and Johnson) 
TYPE : CVRP 
DIMENSION : 14 
EDGE_WEIGHT_TYPE : EUC_2D 
CAPACITY : 500 
NODE_COORD_SECTION 
1049 6395 467 
471 6837 61 
943 6944 101 
250 5152 155 
348 5466 67 
767 5895 59 
426 6223 59 
669 5741 153 
529 5300 283 
740 6442 279 
166 7244 669 
422 6272 474 
716 6527 651 
221 6492 762 
DEMAND_SECTION 
1049 1136
471 39
943 27
250 36
348 25
767 32
426 44
669 31
529 53
740 33
166 34
422 37
716 32
221 38
DEPOT_SECTION 
1049
 -1
EOF